Route #1: 1 9 26 22 21 43 46 48 55 68 64 72 74 1 
Route #2: 1 1 4 11 17 18 14 2 98 83 87 88 91 1 
Route #3: 1 99 100 97 93 92 94 85 75 7 1 
Route #4: 1 8 28 20 49 50 44 42 41 69 62 63 67 1 
Route #5: 1 10 30 25 47 45 51 31 35 39 34 15 1 
Route #6: 1 6 3 5 90 86 81 79 77 73 71 76 82 84 89 1 
Route #7: 1 65 66 61 53 56 58 60 59 57 40 52 1 
Route #8: 1 95 96 13 36 38 37 32 29 27 24 23 1 
Route #9: 1 12 16 19 33 54 80 78 1 
Route #10: 1 70 1 

Cost 1475.26
Time 1.9708


 * Another infos *

 Iterations: 101 Time: 1.9708 sec - 0.0328 min - 0.0005 horas
0.0000 h 0.0328 min
Problem dimension: 101
